decision_x1=[0,4];
decision_x2=[0,4];
decision_x3=[0,4];
decision_x4=[0,4];
decision_x5=[0,4];
decision_x6=[0,4];
decision_x7=[0,4];
decision_x8=[0,4];
decision_x9=[0,4];
decision_x10=[0,4];
decision_x11=[0,4];
decision_x12=[0,4];
decision_x13=[0,4];
decision_x14=[0,4];
decision_x15=[0,4];
random_y1=[0,4];
random_y2=[0,4];
random_y3=[0,4];
constraint_x3_x2=[
0,1,6.5|
0,2,3.4|
0,3,5.4|
0,4,6.9|
1,0,4.1|
1,2,6.4|
1,3,1|
1,4,2.3|
2,0,8.1|
2,1,8.9|
2,3,2.3|
2,4,5.9|
3,0,4.5|
3,1,0.32|
3,2,2.4|
3,4,2.3|
4,0,4.9|
4,1,3.8|
4,2,0.71|
4,3,3.7|
];
constraint_x4_x1=[
0,1,0.5|
0,2,6.2|
0,3,4.7|
0,4,6.2|
1,0,8.2|
1,2,8.9|
1,3,5.4|
1,4,2.1|
2,0,9.2|
2,1,7.2|
2,3,0.027|
2,4,6|
3,0,4.9|
3,1,2.6|
3,2,6.4|
3,4,6.8|
4,0,6.9|
4,1,6.8|
4,2,1.7|
4,3,4.8|
];
constraint_x4_x2=[
0,1,1.9|
0,2,8.7|
0,3,1.3|
0,4,6.7|
1,0,4|
1,2,0.19|
1,3,4.7|
1,4,5.6|
2,0,5.5|
2,1,7.3|
2,3,0.011|
2,4,0.63|
3,0,5.1|
3,1,9.1|
3,2,1.1|
3,4,6|
4,0,2.4|
4,1,2.1|
4,2,0.14|
4,3,8|
];
constraint_x5_x1=[
0,1,9.3|
0,2,7.5|
0,3,8|
0,4,7.8|
1,0,2.3|
1,2,8.7|
1,3,2.5|
1,4,6.4|
2,0,2.3|
2,1,8.5|
2,3,0.58|
2,4,9.3|
3,0,6.2|
3,1,9|
3,2,2.6|
3,4,3.3|
4,0,4.6|
4,1,8.4|
4,2,5.5|
4,3,6.4|
];
constraint_x5_x2=[
0,1,3.9|
0,2,10|
0,3,6.8|
0,4,1.5|
1,0,8.2|
1,2,4|
1,3,9.8|
1,4,3.7|
2,0,8.4|
2,1,2.4|
2,3,5.5|
2,4,6.4|
3,0,3.4|
3,1,9.5|
3,2,7.4|
3,4,0.6|
4,0,6.5|
4,1,5.8|
4,2,5.2|
4,3,6.9|
];
constraint_x5_x4=[
0,1,7.6|
0,2,7.1|
0,3,4.6|
0,4,8.1|
1,0,5.6|
1,2,1.2|
1,3,1.6|
1,4,3|
2,0,7.1|
2,1,6.1|
2,3,4.9|
2,4,6.1|
3,0,4.6|
3,1,6|
3,2,1.5|
3,4,2.4|
4,0,5.6|
4,1,8.1|
4,2,6|
4,3,0.8|
];
constraint_x6_x1=[
0,1,3.8|
0,2,1.8|
0,3,0.64|
0,4,7.2|
1,0,5.9|
1,2,7.7|
1,3,7.2|
1,4,0.46|
2,0,9|
2,1,5|
2,3,1.3|
2,4,4.9|
3,0,5.4|
3,1,6.2|
3,2,6.1|
3,4,10|
4,0,2.5|
4,1,7.6|
4,2,8.9|
4,3,9.6|
];
constraint_x6_x3=[
0,1,2.8|
0,2,0.46|
0,3,2.4|
0,4,0.35|
1,0,5|
1,2,3.1|
1,3,0.3|
1,4,1.7|
2,0,8|
2,1,4.8|
2,3,7.5|
2,4,4.5|
3,0,8.1|
3,1,4.6|
3,2,0.26|
3,4,0.28|
4,0,0.044|
4,1,2.1|
4,2,5.7|
4,3,0.69|
];
constraint_x6_x5=[
0,1,0.36|
0,2,2.4|
0,3,0.28|
0,4,3.6|
1,0,2.5|
1,2,2.4|
1,3,1.9|
1,4,9.7|
2,0,9.7|
2,1,7.2|
2,3,4.6|
2,4,5.7|
3,0,0.45|
3,1,9.3|
3,2,5.1|
3,4,2.8|
4,0,6.7|
4,1,9.1|
4,2,2.5|
4,3,5|
];
constraint_x7_x2=[
0,1,4.4|
0,2,1.6|
0,3,0.92|
0,4,6.3|
1,0,8.7|
1,2,7.2|
1,3,5.5|
1,4,5.3|
2,0,6.5|
2,1,8.4|
2,3,0.62|
2,4,2.2|
3,0,2.9|
3,1,9.2|
3,2,7.6|
3,4,7.4|
4,0,1.8|
4,1,0.38|
4,2,1.5|
4,3,2|
];
constraint_x8_x1=[
0,1,5.3|
0,2,8.1|
0,3,3.5|
0,4,1.8|
1,0,9.7|
1,2,3|
1,3,1.7|
1,4,0.51|
2,0,5.9|
2,1,7.1|
2,3,9.7|
2,4,8.6|
3,0,4.9|
3,1,1.5|
3,2,3.9|
3,4,0.97|
4,0,7.2|
4,1,4.1|
4,2,5.6|
4,3,7|
];
constraint_x8_x6=[
0,1,3.4|
0,2,0.07|
0,3,3.2|
0,4,4.6|
1,0,1.7|
1,2,3.2|
1,3,8.2|
1,4,5.6|
2,0,8.7|
2,1,6.3|
2,3,8.7|
2,4,6.8|
3,0,2.7|
3,1,7.8|
3,2,3.8|
3,4,8.2|
4,0,7.4|
4,1,1.9|
4,2,1.5|
4,3,8|
];
constraint_x8_x7=[
0,1,6.3|
0,2,3.9|
0,3,4.2|
0,4,6|
1,0,9.1|
1,2,5.9|
1,3,6.6|
1,4,7|
2,0,0.65|
2,1,9.8|
2,3,8.8|
2,4,6.9|
3,0,4.8|
3,1,2.6|
3,2,0.2|
3,4,6.5|
4,0,1.5|
4,1,5.8|
4,2,4.5|
4,3,8.7|
];
constraint_x9_x2=[
0,1,7.5|
0,2,2|
0,3,6.2|
0,4,1.9|
1,0,2.3|
1,2,4.5|
1,3,8.6|
1,4,4.2|
2,0,8.3|
2,1,0.15|
2,3,8.8|
2,4,7.2|
3,0,6.2|
3,1,9.1|
3,2,6|
3,4,4.2|
4,0,7|
4,1,1.7|
4,2,0.63|
4,3,9.4|
];
constraint_x9_x4=[
0,1,0.3|
0,2,4.9|
0,3,1.3|
0,4,5.4|
1,0,2.2|
1,2,2.5|
1,3,8.7|
1,4,0.45|
2,0,3.3|
2,1,3|
2,3,5.5|
2,4,8.2|
3,0,5.7|
3,1,6.8|
3,2,2.1|
3,4,0.03|
4,0,0.54|
4,1,0.5|
4,2,5.7|
4,3,6.2|
];
constraint_x9_x5=[
0,1,1.4|
0,2,6.5|
0,3,8.1|
0,4,4.4|
1,0,3.9|
1,2,6.9|
1,3,6.2|
1,4,1.4|
2,0,5.7|
2,1,3|
2,3,5.3|
2,4,1.9|
3,0,7.5|
3,1,8.4|
3,2,9.4|
3,4,0.42|
4,0,6.6|
4,1,6|
4,2,9.2|
4,3,8.5|
];
constraint_x9_x7=[
0,1,9.6|
0,2,3.1|
0,3,5.7|
0,4,6.4|
1,0,3.1|
1,2,9.9|
1,3,6.9|
1,4,3.9|
2,0,0.71|
2,1,3|
2,3,0.052|
2,4,1.9|
3,0,3.8|
3,1,9.7|
3,2,3.4|
3,4,5.5|
4,0,2.3|
4,1,7.5|
4,2,5.2|
4,3,8.9|
];
constraint_x9_x8=[
0,1,2.2|
0,2,8.7|
0,3,5.5|
0,4,8.9|
1,0,6.9|
1,2,3.5|
1,3,7.8|
1,4,8.3|
2,0,7.4|
2,1,6.8|
2,3,1.1|
2,4,5.6|
3,0,6.3|
3,1,8.1|
3,2,6.2|
3,4,6.5|
4,0,2|
4,1,2.7|
4,2,7.7|
4,3,4|
];
constraint_x10_x7=[
0,1,6.2|
0,2,0.18|
0,3,0.94|
0,4,9.7|
1,0,3.4|
1,2,8.5|
1,3,4.2|
1,4,1.1|
2,0,7.4|
2,1,8.8|
2,3,6.2|
2,4,5.4|
3,0,2.4|
3,1,7.1|
3,2,2.5|
3,4,5.6|
4,0,5.6|
4,1,2.1|
4,2,9.4|
4,3,8.8|
];
constraint_x10_x9=[
0,1,9.9|
0,2,4.9|
0,3,2|
0,4,6.1|
1,0,5.7|
1,2,0.93|
1,3,5.9|
1,4,6|
2,0,4.6|
2,1,3.2|
2,3,3.5|
2,4,2.2|
3,0,9|
3,1,6.5|
3,2,5.2|
3,4,3.1|
4,0,9|
4,1,7.2|
4,2,1.6|
4,3,9.3|
];
constraint_x11_x1=[
0,1,7.6|
0,2,3.5|
0,3,10|
0,4,5.3|
1,0,3.1|
1,2,2|
1,3,0.58|
1,4,9.7|
2,0,6.9|
2,1,6.2|
2,3,1.9|
2,4,1.2|
3,0,0.67|
3,1,9.8|
3,2,9.9|
3,4,7.2|
4,0,6.6|
4,1,3.1|
4,2,0.013|
4,3,5.6|
];
constraint_x11_x2=[
0,1,8.8|
0,2,2.4|
0,3,7|
0,4,7.6|
1,0,0.98|
1,2,7.7|
1,3,1.9|
1,4,6.9|
2,0,1.9|
2,1,6.8|
2,3,10|
2,4,0.82|
3,0,6.5|
3,1,4|
3,2,6.7|
3,4,8.9|
4,0,8.4|
4,1,7.7|
4,2,4.7|
4,3,8.2|
];
constraint_x11_x3=[
0,1,1.3|
0,2,0.63|
0,3,6.6|
0,4,8.6|
1,0,5.8|
1,2,6.2|
1,3,4.9|
1,4,7.1|
2,0,1.9|
2,1,0.88|
2,3,4.1|
2,4,7.5|
3,0,7.2|
3,1,9.6|
3,2,6.7|
3,4,8.2|
4,0,9.1|
4,1,5.9|
4,2,4.2|
4,3,5.1|
];
constraint_x11_x4=[
0,1,0.3|
0,2,0.61|
0,3,0.74|
0,4,9.7|
1,0,6|
1,2,5.8|
1,3,2.5|
1,4,1.1|
2,0,5|
2,1,7.7|
2,3,3.1|
2,4,0.44|
3,0,1|
3,1,3.4|
3,2,6.2|
3,4,3.2|
4,0,9.7|
4,1,4.4|
4,2,6.3|
4,3,2.3|
];
constraint_x11_x5=[
0,1,6.4|
0,2,4|
0,3,2.7|
0,4,8|
1,0,9.8|
1,2,2.5|
1,3,0.38|
1,4,7.1|
2,0,0.42|
2,1,9.4|
2,3,8.6|
2,4,5.1|
3,0,3.6|
3,1,1.1|
3,2,1.9|
3,4,1.8|
4,0,3|
4,1,4.6|
4,2,8.6|
4,3,0.54|
];
constraint_x11_x8=[
0,1,0.5|
0,2,0.85|
0,3,4.3|
0,4,7.4|
1,0,9.7|
1,2,9.1|
1,3,2.1|
1,4,7.4|
2,0,9.3|
2,1,4.6|
2,3,8.7|
2,4,6.7|
3,0,6|
3,1,3.7|
3,2,7.7|
3,4,2.2|
4,0,2.9|
4,1,2.5|
4,2,2.9|
4,3,8.5|
];
constraint_x11_x9=[
0,1,6.5|
0,2,3.4|
0,3,5.1|
0,4,8.5|
1,0,0.15|
1,2,2.2|
1,3,9.6|
1,4,0.99|
2,0,2.1|
2,1,8.8|
2,3,0.082|
2,4,9.5|
3,0,9.8|
3,1,0.16|
3,2,8.7|
3,4,4.2|
4,0,4.7|
4,1,1|
4,2,3.2|
4,3,1.7|
];
constraint_x12_x2=[
0,1,1|
0,2,8.6|
0,3,5.9|
0,4,3.5|
1,0,1.4|
1,2,5|
1,3,6.4|
1,4,1.6|
2,0,7.8|
2,1,7.2|
2,3,8.6|
2,4,7.6|
3,0,1.4|
3,1,4.3|
3,2,4.6|
3,4,6.2|
4,0,5.5|
4,1,1.4|
4,2,6.6|
4,3,5.9|
];
constraint_x12_x3=[
0,1,5.4|
0,2,0.069|
0,3,4.2|
0,4,6.6|
1,0,9.9|
1,2,1.8|
1,3,9.9|
1,4,9.1|
2,0,0.63|
2,1,4.7|
2,3,8|
2,4,9|
3,0,9.3|
3,1,9.6|
3,2,5.1|
3,4,5.9|
4,0,8.6|
4,1,4.4|
4,2,3.2|
4,3,7.1|
];
constraint_x12_x4=[
0,1,9.7|
0,2,9.5|
0,3,6.8|
0,4,7.4|
1,0,2.1|
1,2,3.6|
1,3,7.2|
1,4,1.1|
2,0,4.7|
2,1,6.6|
2,3,1.3|
2,4,8.6|
3,0,9.1|
3,1,9.1|
3,2,2.5|
3,4,6.1|
4,0,5.6|
4,1,8.7|
4,2,2.7|
4,3,1.9|
];
constraint_x12_x5=[
0,1,8.5|
0,2,5.3|
0,3,0.32|
0,4,2|
1,0,1|
1,2,0.92|
1,3,5.5|
1,4,6|
2,0,5|
2,1,2.4|
2,3,7.4|
2,4,2|
3,0,9.4|
3,1,6.4|
3,2,3.8|
3,4,3|
4,0,1.7|
4,1,0.76|
4,2,6.3|
4,3,5.3|
];
constraint_x12_x6=[
0,1,3.1|
0,2,9.2|
0,3,1.9|
0,4,6.5|
1,0,7.1|
1,2,2.9|
1,3,4|
1,4,0.59|
2,0,8.7|
2,1,2|
2,3,4.4|
2,4,3.3|
3,0,6.7|
3,1,0.85|
3,2,1.9|
3,4,0.42|
4,0,5.8|
4,1,4.9|
4,2,5.5|
4,3,9.3|
];
constraint_x12_x7=[
0,1,2.3|
0,2,0.19|
0,3,4.3|
0,4,7.2|
1,0,7.9|
1,2,9.3|
1,3,9|
1,4,7.1|
2,0,0.073|
2,1,10|
2,3,9.7|
2,4,3.3|
3,0,2.6|
3,1,6|
3,2,1.7|
3,4,6.7|
4,0,8.5|
4,1,4|
4,2,9.4|
4,3,3.2|
];
constraint_x12_x10=[
0,1,7.2|
0,2,8.1|
0,3,4.4|
0,4,5.7|
1,0,8.4|
1,2,3.8|
1,3,7|
1,4,8.6|
2,0,7.5|
2,1,9.6|
2,3,4.2|
2,4,0.32|
3,0,5.6|
3,1,8.5|
3,2,4.4|
3,4,0.56|
4,0,7|
4,1,8.3|
4,2,6.2|
4,3,2.2|
];
constraint_x13_x5=[
0,1,0.45|
0,2,2.4|
0,3,5|
0,4,6.7|
1,0,6|
1,2,4.4|
1,3,0.0088|
1,4,0.58|
2,0,6.1|
2,1,2.7|
2,3,7.4|
2,4,9.6|
3,0,5.3|
3,1,1.8|
3,2,5.1|
3,4,6.5|
4,0,0.23|
4,1,8.8|
4,2,1.4|
4,3,7.5|
];
constraint_x13_x6=[
0,1,7.6|
0,2,8.2|
0,3,3.7|
0,4,6.6|
1,0,6.5|
1,2,0.4|
1,3,8.7|
1,4,8.7|
2,0,0.68|
2,1,8.1|
2,3,1.3|
2,4,6.3|
3,0,7.8|
3,1,0.14|
3,2,0.058|
3,4,7.8|
4,0,3.3|
4,1,5.1|
4,2,9.5|
4,3,5.1|
];
constraint_x13_x8=[
0,1,6.4|
0,2,7.3|
0,3,8.5|
0,4,0.64|
1,0,4.5|
1,2,4.7|
1,3,1.4|
1,4,7.8|
2,0,6.5|
2,1,0.65|
2,3,4.7|
2,4,3.7|
3,0,2.2|
3,1,9.5|
3,2,3.3|
3,4,9.4|
4,0,7.3|
4,1,8|
4,2,9|
4,3,8.5|
];
constraint_x13_x9=[
0,1,5|
0,2,1.6|
0,3,5.3|
0,4,4|
1,0,8.5|
1,2,5.3|
1,3,6.3|
1,4,8.3|
2,0,2.7|
2,1,7|
2,3,9.6|
2,4,8.5|
3,0,6.4|
3,1,8|
3,2,1.9|
3,4,7.1|
4,0,3.3|
4,1,4.8|
4,2,7|
4,3,1.4|
];
constraint_x13_x12=[
0,1,7.4|
0,2,2.9|
0,3,7.2|
0,4,3.4|
1,0,1.9|
1,2,2|
1,3,0.98|
1,4,1.9|
2,0,5.6|
2,1,3.6|
2,3,4.6|
2,4,5.8|
3,0,2.6|
3,1,8.3|
3,2,0.13|
3,4,2.6|
4,0,1.2|
4,1,5.5|
4,2,0.97|
4,3,6.5|
];
constraint_x14_x3=[
0,1,0.18|
0,2,2.2|
0,3,3.8|
0,4,3.9|
1,0,6.9|
1,2,5.3|
1,3,1.7|
1,4,0.89|
2,0,9.5|
2,1,4.3|
2,3,0.91|
2,4,2.6|
3,0,6.6|
3,1,5.5|
3,2,4.4|
3,4,5.6|
4,0,8.7|
4,1,5.5|
4,2,4.9|
4,3,9.4|
];
constraint_x14_x4=[
0,1,4|
0,2,8.7|
0,3,5.4|
0,4,0.71|
1,0,8.7|
1,2,3.8|
1,3,4.9|
1,4,6.7|
2,0,2.6|
2,1,4.4|
2,3,8.1|
2,4,9.5|
3,0,8.2|
3,1,0.72|
3,2,4.8|
3,4,6.5|
4,0,8.8|
4,1,8.5|
4,2,4.1|
4,3,9.9|
];
constraint_x14_x5=[
0,1,1.1|
0,2,4.3|
0,3,1.4|
0,4,7.4|
1,0,7.8|
1,2,1.8|
1,3,4.4|
1,4,6|
2,0,7.6|
2,1,8.3|
2,3,8.9|
2,4,2.6|
3,0,8.1|
3,1,6|
3,2,9.3|
3,4,3.2|
4,0,6.3|
4,1,3.9|
4,2,4|
4,3,7.9|
];
constraint_x14_x6=[
0,1,9.1|
0,2,5.6|
0,3,8.1|
0,4,2.8|
1,0,3.6|
1,2,4|
1,3,6.4|
1,4,8.6|
2,0,9|
2,1,8.3|
2,3,0.72|
2,4,2.7|
3,0,8.4|
3,1,3.5|
3,2,6.2|
3,4,0.23|
4,0,0.52|
4,1,1.1|
4,2,6.5|
4,3,8|
];
constraint_x14_x7=[
0,1,0.97|
0,2,7.7|
0,3,5.5|
0,4,7.4|
1,0,7.3|
1,2,6.4|
1,3,3.2|
1,4,0.39|
2,0,5.9|
2,1,9.4|
2,3,5|
2,4,3.5|
3,0,9.2|
3,1,6.8|
3,2,0.15|
3,4,1.2|
4,0,4.3|
4,1,2.7|
4,2,1.9|
4,3,3.9|
];
constraint_x14_x9=[
0,1,3.7|
0,2,7.5|
0,3,10|
0,4,10|
1,0,9.2|
1,2,1.3|
1,3,9.6|
1,4,5.5|
2,0,7.3|
2,1,6.2|
2,3,6.9|
2,4,6.7|
3,0,7.6|
3,1,8.9|
3,2,2.1|
3,4,1.6|
4,0,9.1|
4,1,2.4|
4,2,3.9|
4,3,5|
];
constraint_x14_x12=[
0,1,3.8|
0,2,7.7|
0,3,4.5|
0,4,9.2|
1,0,3.9|
1,2,5.5|
1,3,6.2|
1,4,9|
2,0,7.2|
2,1,5.8|
2,3,7.9|
2,4,6|
3,0,2.7|
3,1,5|
3,2,0.98|
3,4,1.6|
4,0,1.2|
4,1,4|
4,2,4.5|
4,3,9.9|
];
constraint_x15_x2=[
0,1,1.2|
0,2,0.19|
0,3,1.6|
0,4,4.4|
1,0,8.9|
1,2,8.1|
1,3,5.7|
1,4,6.8|
2,0,0.77|
2,1,8.5|
2,3,3.1|
2,4,7.6|
3,0,1.5|
3,1,6.2|
3,2,4.9|
3,4,2|
4,0,6.8|
4,1,6.1|
4,2,3.2|
4,3,3|
];
constraint_x15_x4=[
0,1,3.8|
0,2,9.5|
0,3,3.7|
0,4,2.4|
1,0,3.8|
1,2,5.3|
1,3,4.3|
1,4,1.5|
2,0,5.7|
2,1,0.84|
2,3,1.4|
2,4,3.6|
3,0,7.7|
3,1,8.8|
3,2,7.7|
3,4,2.7|
4,0,2.3|
4,1,1.9|
4,2,3.5|
4,3,2.8|
];
constraint_x15_x6=[
0,1,9.1|
0,2,6.3|
0,3,6.3|
0,4,6|
1,0,5.6|
1,2,7.3|
1,3,3.3|
1,4,10|
2,0,5.7|
2,1,8.8|
2,3,9.8|
2,4,5.6|
3,0,1.2|
3,1,0.85|
3,2,4.9|
3,4,1.6|
4,0,2.5|
4,1,1.2|
4,2,4.6|
4,3,4.9|
];
constraint_x15_x10=[
0,1,5|
0,2,1.5|
0,3,9.5|
0,4,7.9|
1,0,1.4|
1,2,1.8|
1,3,9.8|
1,4,5.1|
2,0,4.9|
2,1,4.1|
2,3,8.4|
2,4,7.9|
3,0,7.1|
3,1,0.5|
3,2,9.5|
3,4,5.9|
4,0,6.7|
4,1,2.8|
4,2,4.3|
4,3,9|
];
constraint_x15_x11=[
0,1,0.51|
0,2,3.1|
0,3,1.1|
0,4,6.4|
1,0,9.8|
1,2,7.1|
1,3,2.9|
1,4,8.1|
2,0,5.7|
2,1,4.3|
2,3,10|
2,4,9.7|
3,0,2.7|
3,1,3|
3,2,9.2|
3,4,5.4|
4,0,2.2|
4,1,9.2|
4,2,5.5|
4,3,4.1|
];
constraint_x15_x13=[
0,1,7.6|
0,2,4.2|
0,3,1.1|
0,4,8.9|
1,0,0.092|
1,2,9.9|
1,3,1.7|
1,4,7.2|
2,0,0.74|
2,1,3|
2,3,1.5|
2,4,4.2|
3,0,7.8|
3,1,6.8|
3,2,8.4|
3,4,8.7|
4,0,5.8|
4,1,2.3|
4,2,5.2|
4,3,6|
];
constraint_x15_x14=[
0,1,1.6|
0,2,3.4|
0,3,1.8|
0,4,8.9|
1,0,9.2|
1,2,0.48|
1,3,0.19|
1,4,7.4|
2,0,3.5|
2,1,4.7|
2,3,9.8|
2,4,1.8|
3,0,0.74|
3,1,8.6|
3,2,8.4|
3,4,1.2|
4,0,2|
4,1,5.5|
4,2,6.8|
4,3,0.037|
];
constraint_x1_y1=[
0,0,7.6|
0,1,0.26|
0,2,0.82|
0,3,0.21|
0,4,5.8|
1,0,3.2|
1,1,1.3|
1,2,5|
1,3,3.8|
1,4,6.5|
2,0,5.4|
2,1,8.8|
2,2,6.6|
2,3,4.6|
2,4,6.3|
3,0,3.3|
3,1,5.7|
3,2,6.4|
3,3,0.5|
3,4,4.4|
4,0,0.22|
4,1,3.9|
4,2,1.8|
4,3,3.4|
4,4,5.6|
];
constraint_x2_y2=[
0,0,2.8|
0,1,4.7|
0,2,6.4|
0,3,5.4|
0,4,8.4|
1,0,5.4|
1,1,8.1|
1,2,2.2|
1,3,5.1|
1,4,9.7|
2,0,6|
2,1,7.5|
2,2,7.8|
2,3,2.7|
2,4,2.6|
3,0,3.7|
3,1,8.1|
3,2,1.4|
3,3,2.7|
3,4,2.2|
4,0,2.3|
4,1,5.6|
4,2,1.4|
4,3,9.9|
4,4,4|
];
constraint_x3_y3=[
0,0,0.73|
0,1,5.9|
0,2,4.2|
0,3,7.8|
0,4,5.3|
1,0,4.7|
1,1,4|
1,2,2|
1,3,4.8|
1,4,3.7|
2,0,7.2|
2,1,8.5|
2,2,9.3|
2,3,7|
2,4,3.2|
3,0,5.6|
3,1,5.9|
3,2,9.8|
3,3,1.3|
3,4,8|
4,0,8.8|
4,1,9.5|
4,2,8.5|
4,3,7.9|
4,4,4.4|
];
initial_distribution_y1=[0.034,0.21,0.18,0.42,0.15];
initial_distribution_y2=[0.3,0.19,0.14,0.1,0.27];
initial_distribution_y3=[0.15,0.19,0.3,0.15,0.2];
transition_y1=[
0.32,0.31,0.14,0.019,0.21|
0.087,0.048,0.2,0.37,0.3|
0.075,0.32,0.18,0.066,0.36|
0.16,0.25,0.04,0.42,0.13|
0.11,0.1,0.27,0.24,0.28|
];
transition_y2=[
0.068,0.19,0.31,0.25,0.18|
0.2,0.13,0.076,0.27,0.32|
0.32,0.18,0.16,0.058,0.27|
0.1,0.36,0.15,0.036,0.35|
0.048,0.33,0.21,0.064,0.34|
];
transition_y3=[
0.043,0.44,0.36,0.042,0.11|
0.33,0.18,0.15,0.24,0.096|
0.051,0.045,0.089,0.33,0.49|
0.32,0.12,0.25,0.027,0.29|
0.39,0.14,0.0079,0.43,0.036|
];
